unsat
(:max-memory         18.42
 :memory             18.33
 :nlsat-arith-var    3
 :nlsat-atoms        11
 :nlsat-bool-var     1
 :nlsat-clauses      10
 :nlsat-conflicts    2
 :nlsat-propagations 7
 :nlsat-stages       2
 :num-allocs         52156
 :rlimit-count       2596
 :time               0.00
 :total-time         0.01)
